(set-info :smt-lib-version 2.6)
(set-logic UF)
(set-info :source |Benchmarks from the paper: "Extending Sledgehammer with SMT Solvers" by Jasmin Blanchette, Sascha Bohme, and Lawrence C. Paulson, CADE 2011.  Translated to SMT2 by Andrew Reynolds and Morgan Deters.|)
(set-info :category "industrial")
(set-info :status unknown)
(declare-sort S1 0)
(declare-sort S2 0)
(declare-sort S3 0)
(declare-sort S4 0)
(declare-sort S5 0)
(declare-sort S6 0)
(declare-sort S7 0)
(declare-sort S8 0)
(declare-sort S9 0)
(declare-sort S10 0)
(declare-sort S11 0)
(declare-sort S12 0)
(declare-sort S13 0)
(declare-sort S14 0)
(declare-sort S15 0)
(declare-sort S16 0)
(declare-sort S17 0)
(declare-sort S18 0)
(declare-sort S19 0)
(declare-sort S20 0)
(declare-sort S21 0)
(declare-sort S22 0)
(declare-sort S23 0)
(declare-sort S24 0)
(declare-sort S25 0)
(declare-sort S26 0)
(declare-sort S27 0)
(declare-sort S28 0)
(declare-sort S29 0)
(declare-sort S30 0)
(declare-sort S31 0)
(declare-sort S32 0)
(declare-sort S33 0)
(declare-sort S34 0)
(declare-fun f1 () S1)
(declare-fun f2 () S1)
(declare-fun f3 (S2 S3) S4)
(declare-fun f4 () S2)
(declare-fun f5 (S5 S6) S3)
(declare-fun f6 () S5)
(declare-fun f7 (S7 S6) S6)
(declare-fun f8 () S7)
(declare-fun f9 () S7)
(declare-fun f10 () S6)
(declare-fun f11 () S4)
(declare-fun f12 (S9 S6) S8)
(declare-fun f13 () S9)
(declare-fun f14 (S11 S6) S10)
(declare-fun f15 () S11)
(declare-fun f16 (S13 S6) S12)
(declare-fun f17 () S13)
(declare-fun f18 () S7)
(declare-fun f19 (S14 S6) S4)
(declare-fun f20 () S14)
(declare-fun f21 (S8) S1)
(declare-fun f22 (S6) S1)
(declare-fun f23 (S4) S1)
(declare-fun f24 () S7)
(declare-fun f25 () S4)
(declare-fun f26 () S3)
(declare-fun f27 () S6)
(declare-fun f28 () S8)
(declare-fun f29 (S15 S8) S8)
(declare-fun f30 (S16 S8) S15)
(declare-fun f31 () S16)
(declare-fun f32 (S17 S6) S7)
(declare-fun f33 () S17)
(declare-fun f34 (S18 S4) S4)
(declare-fun f35 (S19 S4) S18)
(declare-fun f36 () S19)
(declare-fun f37 (S10) S1)
(declare-fun f38 () S10)
(declare-fun f39 (S12) S1)
(declare-fun f40 () S12)
(declare-fun f41 (S3) S1)
(declare-fun f42 (S20 S10) S10)
(declare-fun f43 (S21 S10) S20)
(declare-fun f44 () S21)
(declare-fun f45 (S22 S12) S12)
(declare-fun f46 (S23 S12) S22)
(declare-fun f47 () S23)
(declare-fun f48 (S24 S3) S3)
(declare-fun f49 (S25 S3) S24)
(declare-fun f50 () S25)
(declare-fun f51 (S26 S4) S2)
(declare-fun f52 () S26)
(declare-fun f53 (S27 S3) S8)
(declare-fun f54 (S28 S8) S27)
(declare-fun f55 () S28)
(declare-fun f56 (S29 S3) S6)
(declare-fun f57 (S30 S6) S29)
(declare-fun f58 () S30)
(declare-fun f59 () S25)
(declare-fun f60 (S31 S3) S10)
(declare-fun f61 (S32 S10) S31)
(declare-fun f62 () S32)
(declare-fun f63 (S33 S3) S12)
(declare-fun f64 (S34 S12) S33)
(declare-fun f65 () S34)
(declare-fun f66 () S25)
(declare-fun f67 () S19)
(declare-fun f68 () S17)
(declare-fun f69 () S16)
(declare-fun f70 () S21)
(declare-fun f71 () S23)
(assert (not (= f1 f2)))
(assert (not (= (f3 f4 (f5 f6 (f7 f8 (f7 f8 (f7 f9 f10))))) f11)))
(assert (= (f7 f8 f10) f10))
(assert (forall ((?v0 S6)) (= (= f10 (f7 f8 ?v0)) (= f10 ?v0))))
(assert (forall ((?v0 S6)) (= (= (f7 f8 ?v0) f10) (= ?v0 f10))))
(assert (forall ((?v0 S6) (?v1 S6)) (= (= (f7 f8 ?v0) (f7 f9 ?v1)) false)))
(assert (forall ((?v0 S6) (?v1 S6)) (= (= (f7 f9 ?v0) (f7 f8 ?v1)) false)))
(assert (forall ((?v0 S6)) (= (= f10 (f7 f9 ?v0)) false)))
(assert (forall ((?v0 S6)) (= (= (f7 f9 ?v0) f10) false)))
(assert (forall ((?v0 S6) (?v1 S6)) (= (= (f7 f8 ?v0) (f7 f8 ?v1)) (= ?v0 ?v1))))
(assert (= (= f10 f10) true))
(assert (forall ((?v0 S6) (?v1 S6)) (= (= (f7 f9 ?v0) (f7 f9 ?v1)) (= ?v0 ?v1))))
(assert (forall ((?v0 S6) (?v1 S8)) (let ((?v_0 (f12 f13 ?v0))) (= (= ?v_0 ?v1) (= ?v1 ?v_0)))))
(assert (forall ((?v0 S6) (?v1 S10)) (let ((?v_0 (f14 f15 ?v0))) (= (= ?v_0 ?v1) (= ?v1 ?v_0)))))
(assert (forall ((?v0 S6) (?v1 S12)) (let ((?v_0 (f16 f17 ?v0))) (= (= ?v_0 ?v1) (= ?v1 ?v_0)))))
(assert (forall ((?v0 S6) (?v1 S6)) (let ((?v_0 (f7 f18 ?v0))) (= (= ?v_0 ?v1) (= ?v1 ?v_0)))))
(assert (forall ((?v0 S6) (?v1 S4)) (let ((?v_0 (f19 f20 ?v0))) (= (= ?v_0 ?v1) (= ?v1 ?v_0)))))
(assert (forall ((?v0 S6) (?v1 S3)) (let ((?v_0 (f5 f6 ?v0))) (= (= ?v_0 ?v1) (= ?v1 ?v_0)))))
(assert (forall ((?v0 S6) (?v1 S6)) (= (= (f12 f13 ?v0) (f12 f13 ?v1)) (= ?v0 ?v1))))
(assert (forall ((?v0 S6) (?v1 S6)) (= (= (f7 f18 ?v0) (f7 f18 ?v1)) (= ?v0 ?v1))))
(assert (forall ((?v0 S6) (?v1 S6)) (= (= (f19 f20 ?v0) (f19 f20 ?v1)) (= ?v0 ?v1))))
(assert (not (= (f21 (f12 f13 (f7 f9 f10))) f1)))
(assert (not (= (f22 (f7 f18 (f7 f9 f10))) f1)))
(assert (not (= (f23 (f19 f20 (f7 f9 f10))) f1)))
(assert (forall ((?v0 S6)) (not (= f11 (f19 f20 ?v0)))))
(assert (forall ((?v0 S6)) (= (= (f21 (f12 f13 (f7 f8 ?v0))) f1) (= (f21 (f12 f13 ?v0)) f1))))
(assert (forall ((?v0 S6)) (= (= (f22 (f7 f18 (f7 f8 ?v0))) f1) (= (f22 (f7 f18 ?v0)) f1))))
(assert (forall ((?v0 S6)) (= (= (f23 (f19 f20 (f7 f8 ?v0))) f1) (= (f23 (f19 f20 ?v0)) f1))))
(assert (= (f21 (f12 f13 f10)) f1))
(assert (= (f22 (f7 f18 f10)) f1))
(assert (= (f23 (f19 f20 f10)) f1))
(assert (forall ((?v0 S6)) (not (= (f21 (f12 f13 (f7 f9 ?v0))) f1))))
(assert (forall ((?v0 S6)) (not (= (f22 (f7 f18 (f7 f9 ?v0))) f1))))
(assert (forall ((?v0 S6)) (not (= (f23 (f19 f20 (f7 f9 ?v0))) f1))))
(assert (forall ((?v0 S6)) (= (f7 f24 (f7 f9 ?v0)) (f7 f8 (f7 f24 ?v0)))))
(assert (forall ((?v0 S6)) (= (f7 f24 (f7 f8 ?v0)) (f7 f9 ?v0))))
(assert (= (f7 f24 f10) (f7 f9 f10)))
(assert (= (f19 f20 (f7 f9 f10)) f25))
(assert (= (f5 f6 (f7 f9 f10)) f26))
(assert (= (f7 f18 (f7 f9 f10)) f27))
(assert (= (f12 f13 (f7 f9 f10)) f28))
(assert (= (f19 f20 (f7 f9 f10)) f25))
(assert (= (f7 f18 (f7 f9 f10)) f27))
(assert (= (f12 f13 (f7 f9 f10)) f28))
(assert (forall ((?v0 S8)) (= (f29 (f30 f31 (f12 f13 (f7 f9 f10))) ?v0) ?v0)))
(assert (forall ((?v0 S6)) (= (f7 (f32 f33 (f7 f18 (f7 f9 f10))) ?v0) ?v0)))
(assert (forall ((?v0 S4)) (= (f34 (f35 f36 (f19 f20 (f7 f9 f10))) ?v0) ?v0)))
(assert (not (= (f37 f38) f1)))
(assert (not (= (f39 f40) f1)))
(assert (not (= (f23 f25) f1)))
(assert (not (= (f41 f26) f1)))
(assert (not (= (f22 f27) f1)))
(assert (forall ((?v0 S6) (?v1 S6) (?v2 S8)) (= (f29 (f30 f31 (f12 f13 ?v0)) (f29 (f30 f31 (f12 f13 ?v1)) ?v2)) (f29 (f30 f31 (f12 f13 (f7 (f32 f33 ?v0) ?v1))) ?v2))))
(assert (forall ((?v0 S6) (?v1 S6) (?v2 S6)) (= (f7 (f32 f33 (f7 f18 ?v0)) (f7 (f32 f33 (f7 f18 ?v1)) ?v2)) (f7 (f32 f33 (f7 f18 (f7 (f32 f33 ?v0) ?v1))) ?v2))))
(assert (forall ((?v0 S6) (?v1 S6) (?v2 S4)) (= (f34 (f35 f36 (f19 f20 ?v0)) (f34 (f35 f36 (f19 f20 ?v1)) ?v2)) (f34 (f35 f36 (f19 f20 (f7 (f32 f33 ?v0) ?v1))) ?v2))))
(assert (forall ((?v0 S6) (?v1 S6)) (= (f29 (f30 f31 (f12 f13 ?v0)) (f12 f13 ?v1)) (f12 f13 (f7 (f32 f33 ?v0) ?v1)))))
(assert (forall ((?v0 S6) (?v1 S6)) (= (f7 (f32 f33 (f7 f18 ?v0)) (f7 f18 ?v1)) (f7 f18 (f7 (f32 f33 ?v0) ?v1)))))
(assert (forall ((?v0 S6) (?v1 S6)) (= (f34 (f35 f36 (f19 f20 ?v0)) (f19 f20 ?v1)) (f19 f20 (f7 (f32 f33 ?v0) ?v1)))))
(assert (forall ((?v0 S6) (?v1 S6)) (= (f12 f13 (f7 (f32 f33 ?v0) ?v1)) (f29 (f30 f31 (f12 f13 ?v0)) (f12 f13 ?v1)))))
(assert (forall ((?v0 S6) (?v1 S6)) (= (f7 f18 (f7 (f32 f33 ?v0) ?v1)) (f7 (f32 f33 (f7 f18 ?v0)) (f7 f18 ?v1)))))
(assert (forall ((?v0 S6) (?v1 S6)) (= (f19 f20 (f7 (f32 f33 ?v0) ?v1)) (f34 (f35 f36 (f19 f20 ?v0)) (f19 f20 ?v1)))))
(assert (= (f3 f4 f26) f25))
(assert (not (= f11 f25)))
(assert (forall ((?v0 S6)) (= (f7 (f32 f33 f10) ?v0) f10)))
(assert (forall ((?v0 S6) (?v1 S6)) (= (f7 (f32 f33 (f7 f8 ?v0)) ?v1) (f7 f8 (f7 (f32 f33 ?v0) ?v1)))))
(assert (= f27 (f7 f18 (f7 f9 f10))))
(assert (forall ((?v0 S8)) (= (f29 (f30 f31 ?v0) (f12 f13 (f7 f9 f10))) ?v0)))
(assert (forall ((?v0 S6)) (= (f7 (f32 f33 ?v0) (f7 f18 (f7 f9 f10))) ?v0)))
(assert (forall ((?v0 S4)) (= (f34 (f35 f36 ?v0) (f19 f20 (f7 f9 f10))) ?v0)))
(assert (= f25 (f19 f20 (f7 f9 f10))))
(assert (= f27 (f7 f18 (f7 f9 f10))))
(assert (= f28 (f12 f13 (f7 f9 f10))))
(assert (= f26 (f5 f6 (f7 f9 f10))))
(assert (= (f5 f6 (f7 f9 f10)) f26))
(assert (= f40 (f16 f17 (f7 f9 f10))))
(assert (= f38 (f14 f15 (f7 f9 f10))))
(assert (forall ((?v0 S10)) (= (f42 (f43 f44 ?v0) f38) ?v0)))
(assert (forall ((?v0 S12)) (= (f45 (f46 f47 ?v0) f40) ?v0)))
(assert (forall ((?v0 S4)) (= (f34 (f35 f36 ?v0) f25) ?v0)))
(assert (forall ((?v0 S3)) (= (f48 (f49 f50 ?v0) f26) ?v0)))
(assert (forall ((?v0 S6)) (= (f7 (f32 f33 ?v0) f27) ?v0)))
(assert (forall ((?v0 S8)) (= (f29 (f30 f31 ?v0) f28) ?v0)))
(assert (forall ((?v0 S10)) (= (f42 (f43 f44 ?v0) f38) ?v0)))
(assert (forall ((?v0 S12)) (= (f45 (f46 f47 ?v0) f40) ?v0)))
(assert (forall ((?v0 S4)) (= (f34 (f35 f36 ?v0) f25) ?v0)))
(assert (forall ((?v0 S3)) (= (f48 (f49 f50 ?v0) f26) ?v0)))
(assert (forall ((?v0 S6)) (= (f7 (f32 f33 ?v0) f27) ?v0)))
(assert (forall ((?v0 S8)) (= (f29 (f30 f31 ?v0) f28) ?v0)))
(assert (forall ((?v0 S10)) (= (f42 (f43 f44 ?v0) f38) ?v0)))
(assert (forall ((?v0 S12)) (= (f45 (f46 f47 ?v0) f40) ?v0)))
(assert (forall ((?v0 S4)) (= (f34 (f35 f36 ?v0) f25) ?v0)))
(assert (forall ((?v0 S3)) (= (f48 (f49 f50 ?v0) f26) ?v0)))
(assert (forall ((?v0 S6)) (= (f7 (f32 f33 ?v0) f27) ?v0)))
(assert (forall ((?v0 S8)) (= (f29 (f30 f31 ?v0) f28) ?v0)))
(assert (forall ((?v0 S10)) (= (f42 (f43 f44 f38) ?v0) ?v0)))
(assert (forall ((?v0 S12)) (= (f45 (f46 f47 f40) ?v0) ?v0)))
(assert (forall ((?v0 S4)) (= (f34 (f35 f36 f25) ?v0) ?v0)))
(assert (forall ((?v0 S3)) (= (f48 (f49 f50 f26) ?v0) ?v0)))
(assert (forall ((?v0 S6)) (= (f7 (f32 f33 f27) ?v0) ?v0)))
(assert (forall ((?v0 S8)) (= (f29 (f30 f31 f28) ?v0) ?v0)))
(assert (forall ((?v0 S10)) (= (f42 (f43 f44 f38) ?v0) ?v0)))
(assert (forall ((?v0 S12)) (= (f45 (f46 f47 f40) ?v0) ?v0)))
(assert (forall ((?v0 S4)) (= (f34 (f35 f36 f25) ?v0) ?v0)))
(assert (forall ((?v0 S3)) (= (f48 (f49 f50 f26) ?v0) ?v0)))
(assert (forall ((?v0 S6)) (= (f7 (f32 f33 f27) ?v0) ?v0)))
(assert (forall ((?v0 S8)) (= (f29 (f30 f31 f28) ?v0) ?v0)))
(assert (forall ((?v0 S6)) (= (f7 f18 ?v0) ?v0)))
(assert (forall ((?v0 S6)) (= (f7 (f32 f33 f27) ?v0) ?v0)))
(assert (forall ((?v0 S6)) (= (f7 (f32 f33 ?v0) f27) ?v0)))
(assert (forall ((?v0 S6) (?v1 S6)) (= (f7 (f32 f33 ?v0) ?v1) (f7 (f32 f33 ?v1) ?v0))))
(assert (forall ((?v0 S6) (?v1 S6)) (= (f7 (f32 f33 (f7 f18 ?v0)) (f7 f18 ?v1)) (f7 f18 (f7 (f32 f33 ?v0) ?v1)))))
(assert (forall ((?v0 S6) (?v1 S6) (?v2 S6)) (let ((?v_0 (f32 f33 ?v0))) (= (f7 (f32 f33 (f7 ?v_0 ?v1)) ?v2) (f7 ?v_0 (f7 (f32 f33 ?v1) ?v2))))))
(assert (forall ((?v0 S3) (?v1 S3)) (= (f48 (f49 f50 ?v0) ?v1) (f48 (f49 f50 ?v1) ?v0))))
(assert (forall ((?v0 S8) (?v1 S8)) (= (f29 (f30 f31 ?v0) ?v1) (f29 (f30 f31 ?v1) ?v0))))
(assert (forall ((?v0 S6) (?v1 S6)) (= (f7 (f32 f33 ?v0) ?v1) (f7 (f32 f33 ?v1) ?v0))))
(assert (forall ((?v0 S3) (?v1 S3) (?v2 S3)) (let ((?v_1 (f49 f50 ?v0)) (?v_0 (f49 f50 ?v1))) (= (f48 ?v_1 (f48 ?v_0 ?v2)) (f48 ?v_0 (f48 ?v_1 ?v2))))))
(assert (forall ((?v0 S8) (?v1 S8) (?v2 S8)) (let ((?v_1 (f30 f31 ?v0)) (?v_0 (f30 f31 ?v1))) (= (f29 ?v_1 (f29 ?v_0 ?v2)) (f29 ?v_0 (f29 ?v_1 ?v2))))))
(assert (forall ((?v0 S6) (?v1 S6) (?v2 S6)) (let ((?v_1 (f32 f33 ?v0)) (?v_0 (f32 f33 ?v1))) (= (f7 ?v_1 (f7 ?v_0 ?v2)) (f7 ?v_0 (f7 ?v_1 ?v2))))))
(assert (forall ((?v0 S3) (?v1 S3) (?v2 S3)) (let ((?v_0 (f49 f50 ?v0))) (= (f48 ?v_0 (f48 (f49 f50 ?v1) ?v2)) (f48 (f49 f50 (f48 ?v_0 ?v1)) ?v2)))))
(assert (forall ((?v0 S8) (?v1 S8) (?v2 S8)) (let ((?v_0 (f30 f31 ?v0))) (= (f29 ?v_0 (f29 (f30 f31 ?v1) ?v2)) (f29 (f30 f31 (f29 ?v_0 ?v1)) ?v2)))))
(assert (forall ((?v0 S6) (?v1 S6) (?v2 S6)) (let ((?v_0 (f32 f33 ?v0))) (= (f7 ?v_0 (f7 (f32 f33 ?v1) ?v2)) (f7 (f32 f33 (f7 ?v_0 ?v1)) ?v2)))))
(assert (forall ((?v0 S3) (?v1 S3) (?v2 S3)) (let ((?v_0 (f49 f50 ?v0))) (= (f48 (f49 f50 (f48 ?v_0 ?v1)) ?v2) (f48 ?v_0 (f48 (f49 f50 ?v1) ?v2))))))
(assert (forall ((?v0 S8) (?v1 S8) (?v2 S8)) (let ((?v_0 (f30 f31 ?v0))) (= (f29 (f30 f31 (f29 ?v_0 ?v1)) ?v2) (f29 ?v_0 (f29 (f30 f31 ?v1) ?v2))))))
(assert (forall ((?v0 S6) (?v1 S6) (?v2 S6)) (let ((?v_0 (f32 f33 ?v0))) (= (f7 (f32 f33 (f7 ?v_0 ?v1)) ?v2) (f7 ?v_0 (f7 (f32 f33 ?v1) ?v2))))))
(assert (forall ((?v0 S3) (?v1 S3) (?v2 S3)) (let ((?v_0 (f49 f50 ?v0))) (= (f48 (f49 f50 (f48 ?v_0 ?v1)) ?v2) (f48 ?v_0 (f48 (f49 f50 ?v1) ?v2))))))
(assert (forall ((?v0 S8) (?v1 S8) (?v2 S8)) (let ((?v_0 (f30 f31 ?v0))) (= (f29 (f30 f31 (f29 ?v_0 ?v1)) ?v2) (f29 ?v_0 (f29 (f30 f31 ?v1) ?v2))))))
(assert (forall ((?v0 S6) (?v1 S6) (?v2 S6)) (let ((?v_0 (f32 f33 ?v0))) (= (f7 (f32 f33 (f7 ?v_0 ?v1)) ?v2) (f7 ?v_0 (f7 (f32 f33 ?v1) ?v2))))))
(assert (forall ((?v0 S3) (?v1 S3) (?v2 S3)) (let ((?v_0 (f49 f50 ?v0))) (= (f48 (f49 f50 (f48 ?v_0 ?v1)) ?v2) (f48 (f49 f50 (f48 ?v_0 ?v2)) ?v1)))))
(assert (forall ((?v0 S8) (?v1 S8) (?v2 S8)) (let ((?v_0 (f30 f31 ?v0))) (= (f29 (f30 f31 (f29 ?v_0 ?v1)) ?v2) (f29 (f30 f31 (f29 ?v_0 ?v2)) ?v1)))))
(assert (forall ((?v0 S6) (?v1 S6) (?v2 S6)) (let ((?v_0 (f32 f33 ?v0))) (= (f7 (f32 f33 (f7 ?v_0 ?v1)) ?v2) (f7 (f32 f33 (f7 ?v_0 ?v2)) ?v1)))))
(assert (forall ((?v0 S3) (?v1 S3) (?v2 S3) (?v3 S3)) (let ((?v_0 (f49 f50 ?v0)) (?v_1 (f48 (f49 f50 ?v2) ?v3))) (= (f48 (f49 f50 (f48 ?v_0 ?v1)) ?v_1) (f48 ?v_0 (f48 (f49 f50 ?v1) ?v_1))))))
(assert (forall ((?v0 S8) (?v1 S8) (?v2 S8) (?v3 S8)) (let ((?v_0 (f30 f31 ?v0)) (?v_1 (f29 (f30 f31 ?v2) ?v3))) (= (f29 (f30 f31 (f29 ?v_0 ?v1)) ?v_1) (f29 ?v_0 (f29 (f30 f31 ?v1) ?v_1))))))
(assert (forall ((?v0 S6) (?v1 S6) (?v2 S6) (?v3 S6)) (let ((?v_0 (f32 f33 ?v0)) (?v_1 (f7 (f32 f33 ?v2) ?v3))) (= (f7 (f32 f33 (f7 ?v_0 ?v1)) ?v_1) (f7 ?v_0 (f7 (f32 f33 ?v1) ?v_1))))))
(assert (forall ((?v0 S3) (?v1 S3) (?v2 S3) (?v3 S3)) (let ((?v_1 (f49 f50 (f48 (f49 f50 ?v0) ?v1))) (?v_0 (f49 f50 ?v2))) (= (f48 ?v_1 (f48 ?v_0 ?v3)) (f48 ?v_0 (f48 ?v_1 ?v3))))))
(assert (forall ((?v0 S8) (?v1 S8) (?v2 S8) (?v3 S8)) (let ((?v_1 (f30 f31 (f29 (f30 f31 ?v0) ?v1))) (?v_0 (f30 f31 ?v2))) (= (f29 ?v_1 (f29 ?v_0 ?v3)) (f29 ?v_0 (f29 ?v_1 ?v3))))))
(assert (forall ((?v0 S6) (?v1 S6) (?v2 S6) (?v3 S6)) (let ((?v_1 (f32 f33 (f7 (f32 f33 ?v0) ?v1))) (?v_0 (f32 f33 ?v2))) (= (f7 ?v_1 (f7 ?v_0 ?v3)) (f7 ?v_0 (f7 ?v_1 ?v3))))))
(assert (forall ((?v0 S3) (?v1 S3) (?v2 S3) (?v3 S3)) (let ((?v_0 (f49 f50 ?v0))) (= (f48 (f49 f50 (f48 ?v_0 ?v1)) (f48 (f49 f50 ?v2) ?v3)) (f48 (f49 f50 (f48 ?v_0 ?v2)) (f48 (f49 f50 ?v1) ?v3))))))
(assert (forall ((?v0 S8) (?v1 S8) (?v2 S8) (?v3 S8)) (let ((?v_0 (f30 f31 ?v0))) (= (f29 (f30 f31 (f29 ?v_0 ?v1)) (f29 (f30 f31 ?v2) ?v3)) (f29 (f30 f31 (f29 ?v_0 ?v2)) (f29 (f30 f31 ?v1) ?v3))))))
(assert (forall ((?v0 S6) (?v1 S6) (?v2 S6) (?v3 S6)) (let ((?v_0 (f32 f33 ?v0))) (= (f7 (f32 f33 (f7 ?v_0 ?v1)) (f7 (f32 f33 ?v2) ?v3)) (f7 (f32 f33 (f7 ?v_0 ?v2)) (f7 (f32 f33 ?v1) ?v3))))))
(assert (forall ((?v0 S10)) (= (= f38 ?v0) (= ?v0 f38))))
(assert (forall ((?v0 S12)) (= (= f40 ?v0) (= ?v0 f40))))
(assert (forall ((?v0 S4)) (= (= f25 ?v0) (= ?v0 f25))))
(assert (forall ((?v0 S3)) (= (= f26 ?v0) (= ?v0 f26))))
(assert (forall ((?v0 S6)) (= (= f27 ?v0) (= ?v0 f27))))
(assert (forall ((?v0 S10)) (= (f42 (f43 f44 f38) ?v0) ?v0)))
(assert (forall ((?v0 S12)) (= (f45 (f46 f47 f40) ?v0) ?v0)))
(assert (forall ((?v0 S4)) (= (f34 (f35 f36 f25) ?v0) ?v0)))
(assert (forall ((?v0 S3)) (= (f48 (f49 f50 f26) ?v0) ?v0)))
(assert (forall ((?v0 S6)) (= (f7 (f32 f33 f27) ?v0) ?v0)))
(assert (forall ((?v0 S8)) (= (f29 (f30 f31 f28) ?v0) ?v0)))
(assert (forall ((?v0 S6)) (let ((?v_0 (f19 f20 ?v0))) (= (f3 (f51 f52 ?v_0) (f5 f6 (f7 f8 (f7 f9 f10)))) (f34 (f35 f36 ?v_0) ?v_0)))))
(assert (forall ((?v0 S6)) (let ((?v_0 (f12 f13 ?v0))) (= (f53 (f54 f55 ?v_0) (f5 f6 (f7 f8 (f7 f9 f10)))) (f29 (f30 f31 ?v_0) ?v_0)))))
(assert (forall ((?v0 S6)) (let ((?v_0 (f7 f18 ?v0))) (= (f56 (f57 f58 ?v_0) (f5 f6 (f7 f8 (f7 f9 f10)))) (f7 (f32 f33 ?v_0) ?v_0)))))
(assert (forall ((?v0 S6)) (let ((?v_0 (f5 f6 ?v0))) (= (f48 (f49 f59 ?v_0) (f5 f6 (f7 f8 (f7 f9 f10)))) (f48 (f49 f50 ?v_0) ?v_0)))))
(assert (forall ((?v0 S6)) (let ((?v_0 (f14 f15 ?v0))) (= (f60 (f61 f62 ?v_0) (f5 f6 (f7 f8 (f7 f9 f10)))) (f42 (f43 f44 ?v_0) ?v_0)))))
(assert (forall ((?v0 S6)) (let ((?v_0 (f16 f17 ?v0))) (= (f63 (f64 f65 ?v_0) (f5 f6 (f7 f8 (f7 f9 f10)))) (f45 (f46 f47 ?v_0) ?v_0)))))
(assert (= (f48 (f49 f66 f26) f26) (f5 f6 (f7 f8 (f7 f9 f10)))))
(assert (= (f34 (f35 f67 f25) f25) (f19 f20 (f7 f8 (f7 f9 f10)))))
(assert (= (f48 (f49 f66 f26) f26) (f5 f6 (f7 f8 (f7 f9 f10)))))
(assert (= (f7 (f32 f68 f27) f27) (f7 f18 (f7 f8 (f7 f9 f10)))))
(assert (= (f29 (f30 f69 f28) f28) (f12 f13 (f7 f8 (f7 f9 f10)))))
(assert (= (f34 (f35 f67 f25) f25) (f19 f20 (f7 f8 (f7 f9 f10)))))
(assert (= (f7 (f32 f68 f27) f27) (f7 f18 (f7 f8 (f7 f9 f10)))))
(assert (= (f29 (f30 f69 f28) f28) (f12 f13 (f7 f8 (f7 f9 f10)))))
(assert (forall ((?v0 S8)) (= (f29 (f30 f31 (f12 f13 (f7 f8 (f7 f9 f10)))) ?v0) (f29 (f30 f69 ?v0) ?v0))))
(assert (forall ((?v0 S6)) (= (f7 (f32 f33 (f7 f18 (f7 f8 (f7 f9 f10)))) ?v0) (f7 (f32 f68 ?v0) ?v0))))
(assert (forall ((?v0 S3)) (= (f48 (f49 f50 (f5 f6 (f7 f8 (f7 f9 f10)))) ?v0) (f48 (f49 f66 ?v0) ?v0))))
(assert (forall ((?v0 S4)) (= (f34 (f35 f36 (f19 f20 (f7 f8 (f7 f9 f10)))) ?v0) (f34 (f35 f67 ?v0) ?v0))))
(assert (forall ((?v0 S8)) (= (f29 (f30 f31 (f12 f13 (f7 f8 (f7 f9 f10)))) ?v0) (f29 (f30 f69 ?v0) ?v0))))
(assert (forall ((?v0 S6)) (= (f7 (f32 f33 (f7 f18 (f7 f8 (f7 f9 f10)))) ?v0) (f7 (f32 f68 ?v0) ?v0))))
(assert (forall ((?v0 S4)) (= (f34 (f35 f36 (f19 f20 (f7 f8 (f7 f9 f10)))) ?v0) (f34 (f35 f67 ?v0) ?v0))))
(assert (forall ((?v0 S8)) (= (f29 (f30 f31 ?v0) (f12 f13 (f7 f8 (f7 f9 f10)))) (f29 (f30 f69 ?v0) ?v0))))
(assert (forall ((?v0 S6)) (= (f7 (f32 f33 ?v0) (f7 f18 (f7 f8 (f7 f9 f10)))) (f7 (f32 f68 ?v0) ?v0))))
(assert (forall ((?v0 S3)) (= (f48 (f49 f50 ?v0) (f5 f6 (f7 f8 (f7 f9 f10)))) (f48 (f49 f66 ?v0) ?v0))))
(assert (forall ((?v0 S4)) (= (f34 (f35 f36 ?v0) (f19 f20 (f7 f8 (f7 f9 f10)))) (f34 (f35 f67 ?v0) ?v0))))
(assert (forall ((?v0 S8)) (= (f29 (f30 f31 ?v0) (f12 f13 (f7 f8 (f7 f9 f10)))) (f29 (f30 f69 ?v0) ?v0))))
(assert (forall ((?v0 S6)) (= (f7 (f32 f33 ?v0) (f7 f18 (f7 f8 (f7 f9 f10)))) (f7 (f32 f68 ?v0) ?v0))))
(assert (forall ((?v0 S4)) (= (f34 (f35 f36 ?v0) (f19 f20 (f7 f8 (f7 f9 f10)))) (f34 (f35 f67 ?v0) ?v0))))
(assert (forall ((?v0 S6) (?v1 S3) (?v2 S3)) (let ((?v_0 (f57 f58 ?v0))) (= (f56 ?v_0 (f48 (f49 f66 ?v1) ?v2)) (f7 (f32 f33 (f56 ?v_0 ?v1)) (f56 ?v_0 ?v2))))))
(assert (forall ((?v0 S4) (?v1 S3) (?v2 S3)) (let ((?v_0 (f51 f52 ?v0))) (= (f34 (f35 f36 (f3 ?v_0 ?v1)) (f3 ?v_0 ?v2)) (f3 ?v_0 (f48 (f49 f66 ?v1) ?v2))))))
(assert (forall ((?v0 S8) (?v1 S3) (?v2 S3)) (let ((?v_0 (f54 f55 ?v0))) (= (f29 (f30 f31 (f53 ?v_0 ?v1)) (f53 ?v_0 ?v2)) (f53 ?v_0 (f48 (f49 f66 ?v1) ?v2))))))
(assert (forall ((?v0 S6) (?v1 S3) (?v2 S3)) (let ((?v_0 (f57 f58 ?v0))) (= (f7 (f32 f33 (f56 ?v_0 ?v1)) (f56 ?v_0 ?v2)) (f56 ?v_0 (f48 (f49 f66 ?v1) ?v2))))))
(assert (forall ((?v0 S3) (?v1 S3) (?v2 S3)) (let ((?v_0 (f49 f59 ?v0))) (= (f48 (f49 f50 (f48 ?v_0 ?v1)) (f48 ?v_0 ?v2)) (f48 ?v_0 (f48 (f49 f66 ?v1) ?v2))))))
(assert (forall ((?v0 S4) (?v1 S3) (?v2 S3)) (let ((?v_0 (f51 f52 ?v0))) (= (f3 (f51 f52 (f3 ?v_0 ?v1)) ?v2) (f3 ?v_0 (f48 (f49 f50 ?v1) ?v2))))))
(assert (forall ((?v0 S8) (?v1 S3) (?v2 S3)) (let ((?v_0 (f54 f55 ?v0))) (= (f53 (f54 f55 (f53 ?v_0 ?v1)) ?v2) (f53 ?v_0 (f48 (f49 f50 ?v1) ?v2))))))
(assert (forall ((?v0 S6) (?v1 S3) (?v2 S3)) (let ((?v_0 (f57 f58 ?v0))) (= (f56 (f57 f58 (f56 ?v_0 ?v1)) ?v2) (f56 ?v_0 (f48 (f49 f50 ?v1) ?v2))))))
(assert (forall ((?v0 S6) (?v1 S6) (?v2 S8)) (= (f29 (f30 f69 (f12 f13 ?v0)) (f29 (f30 f69 (f12 f13 ?v1)) ?v2)) (f29 (f30 f69 (f12 f13 (f7 (f32 f68 ?v0) ?v1))) ?v2))))
(assert (forall ((?v0 S6) (?v1 S6) (?v2 S6)) (= (f7 (f32 f68 (f7 f18 ?v0)) (f7 (f32 f68 (f7 f18 ?v1)) ?v2)) (f7 (f32 f68 (f7 f18 (f7 (f32 f68 ?v0) ?v1))) ?v2))))
(assert (forall ((?v0 S6) (?v1 S6) (?v2 S4)) (= (f34 (f35 f67 (f19 f20 ?v0)) (f34 (f35 f67 (f19 f20 ?v1)) ?v2)) (f34 (f35 f67 (f19 f20 (f7 (f32 f68 ?v0) ?v1))) ?v2))))
(assert (forall ((?v0 S6) (?v1 S6)) (= (f29 (f30 f69 (f12 f13 ?v0)) (f12 f13 ?v1)) (f12 f13 (f7 (f32 f68 ?v0) ?v1)))))
(assert (forall ((?v0 S6) (?v1 S6)) (= (f7 (f32 f68 (f7 f18 ?v0)) (f7 f18 ?v1)) (f7 f18 (f7 (f32 f68 ?v0) ?v1)))))
(assert (forall ((?v0 S6) (?v1 S6)) (= (f34 (f35 f67 (f19 f20 ?v0)) (f19 f20 ?v1)) (f19 f20 (f7 (f32 f68 ?v0) ?v1)))))
(assert (forall ((?v0 S6) (?v1 S6)) (= (f12 f13 (f7 (f32 f68 ?v0) ?v1)) (f29 (f30 f69 (f12 f13 ?v0)) (f12 f13 ?v1)))))
(assert (forall ((?v0 S6) (?v1 S6)) (= (f7 f18 (f7 (f32 f68 ?v0) ?v1)) (f7 (f32 f68 (f7 f18 ?v0)) (f7 f18 ?v1)))))
(assert (forall ((?v0 S6) (?v1 S6)) (= (f19 f20 (f7 (f32 f68 ?v0) ?v1)) (f34 (f35 f67 (f19 f20 ?v0)) (f19 f20 ?v1)))))
(assert (forall ((?v0 S8) (?v1 S8)) (= (f29 (f30 f69 ?v0) ?v1) (f29 (f30 f69 ?v1) ?v0))))
(assert (forall ((?v0 S6) (?v1 S6)) (= (f7 (f32 f68 ?v0) ?v1) (f7 (f32 f68 ?v1) ?v0))))
(assert (forall ((?v0 S3) (?v1 S3)) (= (f48 (f49 f66 ?v0) ?v1) (f48 (f49 f66 ?v1) ?v0))))
(assert (forall ((?v0 S8) (?v1 S8) (?v2 S8)) (let ((?v_1 (f30 f69 ?v0)) (?v_0 (f30 f69 ?v1))) (= (f29 ?v_1 (f29 ?v_0 ?v2)) (f29 ?v_0 (f29 ?v_1 ?v2))))))
(assert (forall ((?v0 S6) (?v1 S6) (?v2 S6)) (let ((?v_1 (f32 f68 ?v0)) (?v_0 (f32 f68 ?v1))) (= (f7 ?v_1 (f7 ?v_0 ?v2)) (f7 ?v_0 (f7 ?v_1 ?v2))))))
(assert (forall ((?v0 S3) (?v1 S3) (?v2 S3)) (let ((?v_1 (f49 f66 ?v0)) (?v_0 (f49 f66 ?v1))) (= (f48 ?v_1 (f48 ?v_0 ?v2)) (f48 ?v_0 (f48 ?v_1 ?v2))))))
(assert (forall ((?v0 S8) (?v1 S8) (?v2 S8)) (let ((?v_0 (f30 f69 ?v0))) (= (f29 ?v_0 (f29 (f30 f69 ?v1) ?v2)) (f29 (f30 f69 (f29 ?v_0 ?v1)) ?v2)))))
(assert (forall ((?v0 S6) (?v1 S6) (?v2 S6)) (let ((?v_0 (f32 f68 ?v0))) (= (f7 ?v_0 (f7 (f32 f68 ?v1) ?v2)) (f7 (f32 f68 (f7 ?v_0 ?v1)) ?v2)))))
(assert (forall ((?v0 S3) (?v1 S3) (?v2 S3)) (let ((?v_0 (f49 f66 ?v0))) (= (f48 ?v_0 (f48 (f49 f66 ?v1) ?v2)) (f48 (f49 f66 (f48 ?v_0 ?v1)) ?v2)))))
(assert (forall ((?v0 S8) (?v1 S8) (?v2 S8)) (let ((?v_0 (f30 f69 ?v0))) (= (f29 (f30 f69 (f29 ?v_0 ?v1)) ?v2) (f29 ?v_0 (f29 (f30 f69 ?v1) ?v2))))))
(assert (forall ((?v0 S6) (?v1 S6) (?v2 S6)) (let ((?v_0 (f32 f68 ?v0))) (= (f7 (f32 f68 (f7 ?v_0 ?v1)) ?v2) (f7 ?v_0 (f7 (f32 f68 ?v1) ?v2))))))
(assert (forall ((?v0 S3) (?v1 S3) (?v2 S3)) (let ((?v_0 (f49 f66 ?v0))) (= (f48 (f49 f66 (f48 ?v_0 ?v1)) ?v2) (f48 ?v_0 (f48 (f49 f66 ?v1) ?v2))))))
(assert (forall ((?v0 S8) (?v1 S8) (?v2 S8)) (let ((?v_0 (f30 f69 ?v0))) (= (f29 (f30 f69 (f29 ?v_0 ?v1)) ?v2) (f29 ?v_0 (f29 (f30 f69 ?v1) ?v2))))))
(assert (forall ((?v0 S6) (?v1 S6) (?v2 S6)) (let ((?v_0 (f32 f68 ?v0))) (= (f7 (f32 f68 (f7 ?v_0 ?v1)) ?v2) (f7 ?v_0 (f7 (f32 f68 ?v1) ?v2))))))
(assert (forall ((?v0 S3) (?v1 S3) (?v2 S3)) (let ((?v_0 (f49 f66 ?v0))) (= (f48 (f49 f66 (f48 ?v_0 ?v1)) ?v2) (f48 ?v_0 (f48 (f49 f66 ?v1) ?v2))))))
(assert (forall ((?v0 S8) (?v1 S8) (?v2 S8)) (let ((?v_0 (f30 f69 ?v0))) (= (f29 (f30 f69 (f29 ?v_0 ?v1)) ?v2) (f29 (f30 f69 (f29 ?v_0 ?v2)) ?v1)))))
(assert (forall ((?v0 S6) (?v1 S6) (?v2 S6)) (let ((?v_0 (f32 f68 ?v0))) (= (f7 (f32 f68 (f7 ?v_0 ?v1)) ?v2) (f7 (f32 f68 (f7 ?v_0 ?v2)) ?v1)))))
(assert (forall ((?v0 S3) (?v1 S3) (?v2 S3)) (let ((?v_0 (f49 f66 ?v0))) (= (f48 (f49 f66 (f48 ?v_0 ?v1)) ?v2) (f48 (f49 f66 (f48 ?v_0 ?v2)) ?v1)))))
(assert (forall ((?v0 S8) (?v1 S8) (?v2 S8)) (let ((?v_0 (f30 f69 ?v0))) (= (= (f29 ?v_0 ?v1) (f29 ?v_0 ?v2)) (= ?v1 ?v2)))))
(assert (forall ((?v0 S6) (?v1 S6) (?v2 S6)) (let ((?v_0 (f32 f68 ?v0))) (= (= (f7 ?v_0 ?v1) (f7 ?v_0 ?v2)) (= ?v1 ?v2)))))
(assert (forall ((?v0 S3) (?v1 S3) (?v2 S3)) (let ((?v_0 (f49 f66 ?v0))) (= (= (f48 ?v_0 ?v1) (f48 ?v_0 ?v2)) (= ?v1 ?v2)))))
(assert (forall ((?v0 S8) (?v1 S8) (?v2 S8)) (= (= (f29 (f30 f69 ?v0) ?v1) (f29 (f30 f69 ?v2) ?v1)) (= ?v0 ?v2))))
(assert (forall ((?v0 S6) (?v1 S6) (?v2 S6)) (= (= (f7 (f32 f68 ?v0) ?v1) (f7 (f32 f68 ?v2) ?v1)) (= ?v0 ?v2))))
(assert (forall ((?v0 S3) (?v1 S3) (?v2 S3)) (= (= (f48 (f49 f66 ?v0) ?v1) (f48 (f49 f66 ?v2) ?v1)) (= ?v0 ?v2))))
(assert (forall ((?v0 S8) (?v1 S8) (?v2 S8) (?v3 S8)) (let ((?v_0 (f30 f69 ?v0))) (= (f29 (f30 f69 (f29 ?v_0 ?v1)) (f29 (f30 f69 ?v2) ?v3)) (f29 (f30 f69 (f29 ?v_0 ?v2)) (f29 (f30 f69 ?v1) ?v3))))))
(assert (forall ((?v0 S6) (?v1 S6) (?v2 S6) (?v3 S6)) (let ((?v_0 (f32 f68 ?v0))) (= (f7 (f32 f68 (f7 ?v_0 ?v1)) (f7 (f32 f68 ?v2) ?v3)) (f7 (f32 f68 (f7 ?v_0 ?v2)) (f7 (f32 f68 ?v1) ?v3))))))
(assert (forall ((?v0 S3) (?v1 S3) (?v2 S3) (?v3 S3)) (let ((?v_0 (f49 f66 ?v0))) (= (f48 (f49 f66 (f48 ?v_0 ?v1)) (f48 (f49 f66 ?v2) ?v3)) (f48 (f49 f66 (f48 ?v_0 ?v2)) (f48 (f49 f66 ?v1) ?v3))))))
(assert (forall ((?v0 S8) (?v1 S8) (?v2 S8)) (let ((?v_0 (f30 f69 ?v0))) (=> (= (f29 ?v_0 ?v1) (f29 ?v_0 ?v2)) (= ?v1 ?v2)))))
(assert (forall ((?v0 S6) (?v1 S6) (?v2 S6)) (let ((?v_0 (f32 f68 ?v0))) (=> (= (f7 ?v_0 ?v1) (f7 ?v_0 ?v2)) (= ?v1 ?v2)))))
(assert (forall ((?v0 S3) (?v1 S3) (?v2 S3)) (let ((?v_0 (f49 f66 ?v0))) (=> (= (f48 ?v_0 ?v1) (f48 ?v_0 ?v2)) (= ?v1 ?v2)))))
(assert (forall ((?v0 S8) (?v1 S8) (?v2 S8)) (let ((?v_0 (f30 f69 ?v0))) (=> (= (f29 ?v_0 ?v1) (f29 ?v_0 ?v2)) (= ?v1 ?v2)))))
(assert (forall ((?v0 S6) (?v1 S6) (?v2 S6)) (let ((?v_0 (f32 f68 ?v0))) (=> (= (f7 ?v_0 ?v1) (f7 ?v_0 ?v2)) (= ?v1 ?v2)))))
(assert (forall ((?v0 S3) (?v1 S3) (?v2 S3)) (let ((?v_0 (f49 f66 ?v0))) (=> (= (f48 ?v_0 ?v1) (f48 ?v_0 ?v2)) (= ?v1 ?v2)))))
(assert (forall ((?v0 S8) (?v1 S8) (?v2 S8)) (=> (= (f29 (f30 f69 ?v0) ?v1) (f29 (f30 f69 ?v2) ?v1)) (= ?v0 ?v2))))
(assert (forall ((?v0 S6) (?v1 S6) (?v2 S6)) (=> (= (f7 (f32 f68 ?v0) ?v1) (f7 (f32 f68 ?v2) ?v1)) (= ?v0 ?v2))))
(assert (forall ((?v0 S3) (?v1 S3) (?v2 S3)) (=> (= (f48 (f49 f66 ?v0) ?v1) (f48 (f49 f66 ?v2) ?v1)) (= ?v0 ?v2))))
(assert (forall ((?v0 S4) (?v1 S4) (?v2 S3)) (= (f3 (f51 f52 (f34 (f35 f36 ?v0) ?v1)) ?v2) (f34 (f35 f36 (f3 (f51 f52 ?v0) ?v2)) (f3 (f51 f52 ?v1) ?v2)))))
(assert (forall ((?v0 S8) (?v1 S8) (?v2 S3)) (= (f53 (f54 f55 (f29 (f30 f31 ?v0) ?v1)) ?v2) (f29 (f30 f31 (f53 (f54 f55 ?v0) ?v2)) (f53 (f54 f55 ?v1) ?v2)))))
(assert (forall ((?v0 S6) (?v1 S6) (?v2 S3)) (= (f56 (f57 f58 (f7 (f32 f33 ?v0) ?v1)) ?v2) (f7 (f32 f33 (f56 (f57 f58 ?v0) ?v2)) (f56 (f57 f58 ?v1) ?v2)))))
(assert (forall ((?v0 S3) (?v1 S3) (?v2 S3)) (= (f48 (f49 f59 (f48 (f49 f50 ?v0) ?v1)) ?v2) (f48 (f49 f50 (f48 (f49 f59 ?v0) ?v2)) (f48 (f49 f59 ?v1) ?v2)))))
(assert (forall ((?v0 S8) (?v1 S8) (?v2 S8) (?v3 S8)) (let ((?v_0 (f30 f31 ?v0)) (?v_1 (f30 f31 ?v2))) (= (= (f29 (f30 f69 (f29 ?v_0 ?v1)) (f29 ?v_1 ?v3)) (f29 (f30 f69 (f29 ?v_0 ?v3)) (f29 ?v_1 ?v1))) (or (= ?v0 ?v2) (= ?v1 ?v3))))))
(assert (forall ((?v0 S6) (?v1 S6) (?v2 S6) (?v3 S6)) (let ((?v_0 (f32 f33 ?v0)) (?v_1 (f32 f33 ?v2))) (= (= (f7 (f32 f68 (f7 ?v_0 ?v1)) (f7 ?v_1 ?v3)) (f7 (f32 f68 (f7 ?v_0 ?v3)) (f7 ?v_1 ?v1))) (or (= ?v0 ?v2) (= ?v1 ?v3))))))
(assert (forall ((?v0 S3) (?v1 S3) (?v2 S3) (?v3 S3)) (let ((?v_0 (f49 f50 ?v0)) (?v_1 (f49 f50 ?v2))) (= (= (f48 (f49 f66 (f48 ?v_0 ?v1)) (f48 ?v_1 ?v3)) (f48 (f49 f66 (f48 ?v_0 ?v3)) (f48 ?v_1 ?v1))) (or (= ?v0 ?v2) (= ?v1 ?v3))))))
(assert (forall ((?v0 S8) (?v1 S8) (?v2 S8)) (= (f29 (f30 f69 (f29 (f30 f31 ?v0) ?v1)) (f29 (f30 f31 ?v2) ?v1)) (f29 (f30 f31 (f29 (f30 f69 ?v0) ?v2)) ?v1))))
(assert (forall ((?v0 S6) (?v1 S6) (?v2 S6)) (= (f7 (f32 f68 (f7 (f32 f33 ?v0) ?v1)) (f7 (f32 f33 ?v2) ?v1)) (f7 (f32 f33 (f7 (f32 f68 ?v0) ?v2)) ?v1))))
(assert (forall ((?v0 S3) (?v1 S3) (?v2 S3)) (= (f48 (f49 f66 (f48 (f49 f50 ?v0) ?v1)) (f48 (f49 f50 ?v2) ?v1)) (f48 (f49 f50 (f48 (f49 f66 ?v0) ?v2)) ?v1))))
(assert (forall ((?v0 S8) (?v1 S8) (?v2 S8)) (= (f29 (f30 f31 (f29 (f30 f69 ?v0) ?v1)) ?v2) (f29 (f30 f69 (f29 (f30 f31 ?v0) ?v2)) (f29 (f30 f31 ?v1) ?v2)))))
(assert (forall ((?v0 S6) (?v1 S6) (?v2 S6)) (= (f7 (f32 f33 (f7 (f32 f68 ?v0) ?v1)) ?v2) (f7 (f32 f68 (f7 (f32 f33 ?v0) ?v2)) (f7 (f32 f33 ?v1) ?v2)))))
(assert (forall ((?v0 S3) (?v1 S3) (?v2 S3)) (= (f48 (f49 f50 (f48 (f49 f66 ?v0) ?v1)) ?v2) (f48 (f49 f66 (f48 (f49 f50 ?v0) ?v2)) (f48 (f49 f50 ?v1) ?v2)))))
(assert (forall ((?v0 S8) (?v1 S8) (?v2 S8) (?v3 S8)) (let ((?v_0 (f30 f31 ?v0)) (?v_1 (f30 f31 ?v1))) (= (and (not (= ?v0 ?v1)) (not (= ?v2 ?v3))) (not (= (f29 (f30 f69 (f29 ?v_0 ?v2)) (f29 ?v_1 ?v3)) (f29 (f30 f69 (f29 ?v_0 ?v3)) (f29 ?v_1 ?v2))))))))
(assert (forall ((?v0 S6) (?v1 S6) (?v2 S6) (?v3 S6)) (let ((?v_0 (f32 f33 ?v0)) (?v_1 (f32 f33 ?v1))) (= (and (not (= ?v0 ?v1)) (not (= ?v2 ?v3))) (not (= (f7 (f32 f68 (f7 ?v_0 ?v2)) (f7 ?v_1 ?v3)) (f7 (f32 f68 (f7 ?v_0 ?v3)) (f7 ?v_1 ?v2))))))))
(assert (forall ((?v0 S3) (?v1 S3) (?v2 S3) (?v3 S3)) (let ((?v_0 (f49 f50 ?v0)) (?v_1 (f49 f50 ?v1))) (= (and (not (= ?v0 ?v1)) (not (= ?v2 ?v3))) (not (= (f48 (f49 f66 (f48 ?v_0 ?v2)) (f48 ?v_1 ?v3)) (f48 (f49 f66 (f48 ?v_0 ?v3)) (f48 ?v_1 ?v2))))))))
(assert (forall ((?v0 S8) (?v1 S8) (?v2 S8)) (let ((?v_0 (f30 f31 ?v0))) (= (f29 ?v_0 (f29 (f30 f69 ?v1) ?v2)) (f29 (f30 f69 (f29 ?v_0 ?v1)) (f29 ?v_0 ?v2))))))
(assert (forall ((?v0 S6) (?v1 S6) (?v2 S6)) (let ((?v_0 (f32 f33 ?v0))) (= (f7 ?v_0 (f7 (f32 f68 ?v1) ?v2)) (f7 (f32 f68 (f7 ?v_0 ?v1)) (f7 ?v_0 ?v2))))))
(assert (forall ((?v0 S3) (?v1 S3) (?v2 S3)) (let ((?v_0 (f49 f50 ?v0))) (= (f48 ?v_0 (f48 (f49 f66 ?v1) ?v2)) (f48 (f49 f66 (f48 ?v_0 ?v1)) (f48 ?v_0 ?v2))))))
(assert (forall ((?v0 S4)) (= (f3 (f51 f52 ?v0) f26) ?v0)))
(assert (forall ((?v0 S8)) (= (f53 (f54 f55 ?v0) f26) ?v0)))
(assert (forall ((?v0 S6)) (= (f56 (f57 f58 ?v0) f26) ?v0)))
(assert (forall ((?v0 S6)) (= (f7 (f32 f68 f10) ?v0) ?v0)))
(assert (forall ((?v0 S6)) (= (f7 (f32 f68 ?v0) f10) ?v0)))
(assert (forall ((?v0 S6)) (= (f7 f8 ?v0) (f7 (f32 f68 ?v0) ?v0))))
(assert (forall ((?v0 S6) (?v1 S6)) (= (f7 (f32 f68 (f7 f8 ?v0)) (f7 f8 ?v1)) (f7 f8 (f7 (f32 f68 ?v0) ?v1)))))
(assert (forall ((?v0 S6) (?v1 S6)) (= (f7 (f32 f68 (f7 f18 ?v0)) (f7 f18 ?v1)) (f7 f18 (f7 (f32 f68 ?v0) ?v1)))))
(assert (forall ((?v0 S6) (?v1 S6) (?v2 S6)) (= (f7 (f32 f33 (f7 (f32 f68 ?v0) ?v1)) ?v2) (f7 (f32 f68 (f7 (f32 f33 ?v0) ?v2)) (f7 (f32 f33 ?v1) ?v2)))))
(assert (forall ((?v0 S6) (?v1 S6) (?v2 S6)) (let ((?v_0 (f32 f33 ?v0))) (= (f7 ?v_0 (f7 (f32 f68 ?v1) ?v2)) (f7 (f32 f68 (f7 ?v_0 ?v1)) (f7 ?v_0 ?v2))))))
(assert (forall ((?v0 S6)) (= (f34 (f35 f67 f25) (f19 f20 ?v0)) (f19 f20 (f7 (f32 f68 (f7 f9 f10)) ?v0)))))
(assert (forall ((?v0 S6)) (= (f7 (f32 f68 f27) (f7 f18 ?v0)) (f7 f18 (f7 (f32 f68 (f7 f9 f10)) ?v0)))))
(assert (forall ((?v0 S6)) (= (f29 (f30 f69 f28) (f12 f13 ?v0)) (f12 f13 (f7 (f32 f68 (f7 f9 f10)) ?v0)))))
(assert (forall ((?v0 S6)) (= (f34 (f35 f67 (f19 f20 ?v0)) f25) (f19 f20 (f7 (f32 f68 ?v0) (f7 f9 f10))))))
(assert (forall ((?v0 S6)) (= (f7 (f32 f68 (f7 f18 ?v0)) f27) (f7 f18 (f7 (f32 f68 ?v0) (f7 f9 f10))))))
(assert (forall ((?v0 S6)) (= (f29 (f30 f69 (f12 f13 ?v0)) f28) (f12 f13 (f7 (f32 f68 ?v0) (f7 f9 f10))))))
(assert (forall ((?v0 S8) (?v1 S8)) (let ((?v_1 (f7 f8 (f7 f9 f10)))) (let ((?v_0 (f5 f6 ?v_1))) (= (f53 (f54 f55 (f29 (f30 f69 ?v0) ?v1)) ?v_0) (f29 (f30 f69 (f29 (f30 f69 (f53 (f54 f55 ?v0) ?v_0)) (f53 (f54 f55 ?v1) ?v_0))) (f29 (f30 f31 (f29 (f30 f31 (f12 f13 ?v_1)) ?v0)) ?v1)))))))
(assert (forall ((?v0 S8) (?v1 S8) (?v2 S6)) (let ((?v_0 (f12 f13 ?v2))) (= (f29 (f30 f31 (f29 (f30 f69 ?v0) ?v1)) ?v_0) (f29 (f30 f69 (f29 (f30 f31 ?v0) ?v_0)) (f29 (f30 f31 ?v1) ?v_0))))))
(assert (forall ((?v0 S6) (?v1 S6) (?v2 S6)) (let ((?v_0 (f7 f18 ?v2))) (= (f7 (f32 f33 (f7 (f32 f68 ?v0) ?v1)) ?v_0) (f7 (f32 f68 (f7 (f32 f33 ?v0) ?v_0)) (f7 (f32 f33 ?v1) ?v_0))))))
(assert (forall ((?v0 S3) (?v1 S3) (?v2 S6)) (let ((?v_0 (f5 f6 ?v2))) (= (f48 (f49 f50 (f48 (f49 f66 ?v0) ?v1)) ?v_0) (f48 (f49 f66 (f48 (f49 f50 ?v0) ?v_0)) (f48 (f49 f50 ?v1) ?v_0))))))
(assert (forall ((?v0 S10) (?v1 S10) (?v2 S6)) (let ((?v_0 (f14 f15 ?v2))) (= (f42 (f43 f44 (f42 (f43 f70 ?v0) ?v1)) ?v_0) (f42 (f43 f70 (f42 (f43 f44 ?v0) ?v_0)) (f42 (f43 f44 ?v1) ?v_0))))))
(assert (forall ((?v0 S12) (?v1 S12) (?v2 S6)) (let ((?v_0 (f16 f17 ?v2))) (= (f45 (f46 f47 (f45 (f46 f71 ?v0) ?v1)) ?v_0) (f45 (f46 f71 (f45 (f46 f47 ?v0) ?v_0)) (f45 (f46 f47 ?v1) ?v_0))))))
(assert (forall ((?v0 S4) (?v1 S4) (?v2 S6)) (let ((?v_0 (f19 f20 ?v2))) (= (f34 (f35 f36 (f34 (f35 f67 ?v0) ?v1)) ?v_0) (f34 (f35 f67 (f34 (f35 f36 ?v0) ?v_0)) (f34 (f35 f36 ?v1) ?v_0))))))
(assert (forall ((?v0 S6) (?v1 S8) (?v2 S8)) (let ((?v_0 (f30 f31 (f12 f13 ?v0)))) (= (f29 ?v_0 (f29 (f30 f69 ?v1) ?v2)) (f29 (f30 f69 (f29 ?v_0 ?v1)) (f29 ?v_0 ?v2))))))
(assert (forall ((?v0 S6) (?v1 S6) (?v2 S6)) (let ((?v_0 (f32 f33 (f7 f18 ?v0)))) (= (f7 ?v_0 (f7 (f32 f68 ?v1) ?v2)) (f7 (f32 f68 (f7 ?v_0 ?v1)) (f7 ?v_0 ?v2))))))
(assert (forall ((?v0 S6) (?v1 S3) (?v2 S3)) (let ((?v_0 (f49 f50 (f5 f6 ?v0)))) (= (f48 ?v_0 (f48 (f49 f66 ?v1) ?v2)) (f48 (f49 f66 (f48 ?v_0 ?v1)) (f48 ?v_0 ?v2))))))
(assert (forall ((?v0 S6) (?v1 S10) (?v2 S10)) (let ((?v_0 (f43 f44 (f14 f15 ?v0)))) (= (f42 ?v_0 (f42 (f43 f70 ?v1) ?v2)) (f42 (f43 f70 (f42 ?v_0 ?v1)) (f42 ?v_0 ?v2))))))
(assert (forall ((?v0 S6) (?v1 S12) (?v2 S12)) (let ((?v_0 (f46 f47 (f16 f17 ?v0)))) (= (f45 ?v_0 (f45 (f46 f71 ?v1) ?v2)) (f45 (f46 f71 (f45 ?v_0 ?v1)) (f45 ?v_0 ?v2))))))
(assert (forall ((?v0 S6) (?v1 S4) (?v2 S4)) (let ((?v_0 (f35 f36 (f19 f20 ?v0)))) (= (f34 ?v_0 (f34 (f35 f67 ?v1) ?v2)) (f34 (f35 f67 (f34 ?v_0 ?v1)) (f34 ?v_0 ?v2))))))
(assert (forall ((?v0 S10) (?v1 S10)) (= (f42 (f43 f70 (f42 (f43 f44 ?v0) ?v1)) ?v1) (f42 (f43 f44 (f42 (f43 f70 ?v0) f38)) ?v1))))
(assert (forall ((?v0 S12) (?v1 S12)) (= (f45 (f46 f71 (f45 (f46 f47 ?v0) ?v1)) ?v1) (f45 (f46 f47 (f45 (f46 f71 ?v0) f40)) ?v1))))
(assert (forall ((?v0 S4) (?v1 S4)) (= (f34 (f35 f67 (f34 (f35 f36 ?v0) ?v1)) ?v1) (f34 (f35 f36 (f34 (f35 f67 ?v0) f25)) ?v1))))
(assert (forall ((?v0 S3) (?v1 S3)) (= (f48 (f49 f66 (f48 (f49 f50 ?v0) ?v1)) ?v1) (f48 (f49 f50 (f48 (f49 f66 ?v0) f26)) ?v1))))
(assert (forall ((?v0 S6) (?v1 S6)) (= (f7 (f32 f68 (f7 (f32 f33 ?v0) ?v1)) ?v1) (f7 (f32 f33 (f7 (f32 f68 ?v0) f27)) ?v1))))
(assert (forall ((?v0 S8) (?v1 S8)) (= (f29 (f30 f69 (f29 (f30 f31 ?v0) ?v1)) ?v1) (f29 (f30 f31 (f29 (f30 f69 ?v0) f28)) ?v1))))
(assert (forall ((?v0 S10) (?v1 S10)) (= (f42 (f43 f70 ?v0) (f42 (f43 f44 ?v1) ?v0)) (f42 (f43 f44 (f42 (f43 f70 ?v1) f38)) ?v0))))
(assert (forall ((?v0 S12) (?v1 S12)) (= (f45 (f46 f71 ?v0) (f45 (f46 f47 ?v1) ?v0)) (f45 (f46 f47 (f45 (f46 f71 ?v1) f40)) ?v0))))
(assert (forall ((?v0 S4) (?v1 S4)) (= (f34 (f35 f67 ?v0) (f34 (f35 f36 ?v1) ?v0)) (f34 (f35 f36 (f34 (f35 f67 ?v1) f25)) ?v0))))
(assert (forall ((?v0 S3) (?v1 S3)) (= (f48 (f49 f66 ?v0) (f48 (f49 f50 ?v1) ?v0)) (f48 (f49 f50 (f48 (f49 f66 ?v1) f26)) ?v0))))
(assert (forall ((?v0 S6) (?v1 S6)) (= (f7 (f32 f68 ?v0) (f7 (f32 f33 ?v1) ?v0)) (f7 (f32 f33 (f7 (f32 f68 ?v1) f27)) ?v0))))
(assert (forall ((?v0 S8) (?v1 S8)) (= (f29 (f30 f69 ?v0) (f29 (f30 f31 ?v1) ?v0)) (f29 (f30 f31 (f29 (f30 f69 ?v1) f28)) ?v0))))
(assert (forall ((?v0 S10)) (= (f42 (f43 f70 ?v0) ?v0) (f42 (f43 f44 (f42 (f43 f70 f38) f38)) ?v0))))
(assert (forall ((?v0 S12)) (= (f45 (f46 f71 ?v0) ?v0) (f45 (f46 f47 (f45 (f46 f71 f40) f40)) ?v0))))
(assert (forall ((?v0 S4)) (= (f34 (f35 f67 ?v0) ?v0) (f34 (f35 f36 (f34 (f35 f67 f25) f25)) ?v0))))
(assert (forall ((?v0 S3)) (= (f48 (f49 f66 ?v0) ?v0) (f48 (f49 f50 (f48 (f49 f66 f26) f26)) ?v0))))
(assert (forall ((?v0 S6)) (= (f7 (f32 f68 ?v0) ?v0) (f7 (f32 f33 (f7 (f32 f68 f27) f27)) ?v0))))
(assert (forall ((?v0 S8)) (= (f29 (f30 f69 ?v0) ?v0) (f29 (f30 f31 (f29 (f30 f69 f28) f28)) ?v0))))
(assert (forall ((?v0 S8)) (= (f29 (f30 f69 ?v0) (f12 f13 f10)) ?v0)))
(assert (forall ((?v0 S6)) (= (f7 (f32 f68 ?v0) (f7 f18 f10)) ?v0)))
(assert (forall ((?v0 S4)) (= (f34 (f35 f67 ?v0) (f19 f20 f10)) ?v0)))
(assert (forall ((?v0 S8)) (= (f29 (f30 f69 (f12 f13 f10)) ?v0) ?v0)))
(assert (forall ((?v0 S6)) (= (f7 (f32 f68 (f7 f18 f10)) ?v0) ?v0)))
(assert (forall ((?v0 S4)) (= (f34 (f35 f67 (f19 f20 f10)) ?v0) ?v0)))
(assert (forall ((?v0 S6) (?v1 S6)) (= (f7 (f32 f68 (f7 f8 ?v0)) (f7 f9 ?v1)) (f7 f9 (f7 (f32 f68 ?v0) ?v1)))))
(assert (forall ((?v0 S6) (?v1 S6)) (= (f7 (f32 f68 (f7 f9 ?v0)) (f7 f8 ?v1)) (f7 f9 (f7 (f32 f68 ?v0) ?v1)))))
(assert (forall ((?v0 S6)) (= (f7 f9 ?v0) (f7 (f32 f68 (f7 (f32 f68 f27) ?v0)) ?v0))))
(assert (forall ((?v0 S6)) (= (f7 f24 ?v0) (f7 (f32 f68 ?v0) f27))))
(assert (forall ((?v0 S3)) (= (f3 (f51 f52 (f3 f4 ?v0)) ?v0) f25)))
(assert (forall ((?v0 S8) (?v1 S8)) (let ((?v_1 (f7 f8 (f7 f9 f10)))) (let ((?v_0 (f5 f6 ?v_1))) (= (f53 (f54 f55 (f29 (f30 f69 ?v0) ?v1)) ?v_0) (f29 (f30 f69 (f29 (f30 f69 (f53 (f54 f55 ?v0) ?v_0)) (f53 (f54 f55 ?v1) ?v_0))) (f29 (f30 f31 (f29 (f30 f31 (f12 f13 ?v_1)) ?v0)) ?v1)))))))
(assert (forall ((?v0 S6) (?v1 S6)) (let ((?v_1 (f7 f8 (f7 f9 f10)))) (let ((?v_0 (f5 f6 ?v_1))) (= (f56 (f57 f58 (f7 (f32 f68 ?v0) ?v1)) ?v_0) (f7 (f32 f68 (f7 (f32 f68 (f56 (f57 f58 ?v0) ?v_0)) (f56 (f57 f58 ?v1) ?v_0))) (f7 (f32 f33 (f7 (f32 f33 (f7 f18 ?v_1)) ?v0)) ?v1)))))))
(assert (forall ((?v0 S3) (?v1 S3)) (let ((?v_0 (f5 f6 (f7 f8 (f7 f9 f10))))) (= (f48 (f49 f59 (f48 (f49 f66 ?v0) ?v1)) ?v_0) (f48 (f49 f66 (f48 (f49 f66 (f48 (f49 f59 ?v0) ?v_0)) (f48 (f49 f59 ?v1) ?v_0))) (f48 (f49 f50 (f48 (f49 f50 ?v_0) ?v0)) ?v1))))))
(assert (forall ((?v0 S4) (?v1 S4)) (let ((?v_1 (f7 f8 (f7 f9 f10)))) (let ((?v_0 (f5 f6 ?v_1))) (= (f3 (f51 f52 (f34 (f35 f67 ?v0) ?v1)) ?v_0) (f34 (f35 f67 (f34 (f35 f67 (f3 (f51 f52 ?v0) ?v_0)) (f3 (f51 f52 ?v1) ?v_0))) (f34 (f35 f36 (f34 (f35 f36 (f19 f20 ?v_1)) ?v0)) ?v1)))))))
(assert (forall ((?v0 S6)) (let ((?v_0 (f19 f20 ?v0))) (= (f19 f20 (f7 f9 ?v0)) (f34 (f35 f67 (f34 (f35 f67 f25) ?v_0)) ?v_0)))))
(assert (forall ((?v0 S6)) (let ((?v_0 (f7 f18 ?v0))) (= (f7 f18 (f7 f9 ?v0)) (f7 (f32 f68 (f7 (f32 f68 f27) ?v_0)) ?v_0)))))
(assert (forall ((?v0 S6)) (let ((?v_0 (f12 f13 ?v0))) (= (f12 f13 (f7 f9 ?v0)) (f29 (f30 f69 (f29 (f30 f69 f28) ?v_0)) ?v_0)))))
(assert (forall ((?v0 S6) (?v1 S6)) (= (f7 (f32 f33 (f7 f9 ?v0)) ?v1) (f7 (f32 f68 (f7 f8 (f7 (f32 f33 ?v0) ?v1))) ?v1))))
(assert (forall ((?v0 S6)) (= (f19 f20 (f7 f24 ?v0)) (f34 (f35 f67 f25) (f19 f20 ?v0)))))
(assert (forall ((?v0 S6)) (= (f7 f18 (f7 f24 ?v0)) (f7 (f32 f68 f27) (f7 f18 ?v0)))))
(assert (forall ((?v0 S6)) (= (f12 f13 (f7 f24 ?v0)) (f29 (f30 f69 f28) (f12 f13 ?v0)))))
(assert (forall ((?v0 S6) (?v1 S6)) (= (f7 (f32 f68 (f7 f9 ?v0)) (f7 f9 ?v1)) (f7 f8 (f7 (f32 f68 ?v0) (f7 f24 ?v1))))))
(assert (forall ((?v0 S4)) (= (f3 (f51 f52 ?v0) (f5 f6 (f7 f9 (f7 f9 f10)))) (f34 (f35 f36 (f34 (f35 f36 ?v0) ?v0)) ?v0))))
(assert (forall ((?v0 S8)) (= (f53 (f54 f55 ?v0) (f5 f6 (f7 f9 (f7 f9 f10)))) (f29 (f30 f31 (f29 (f30 f31 ?v0) ?v0)) ?v0))))
(assert (forall ((?v0 S6)) (= (f56 (f57 f58 ?v0) (f5 f6 (f7 f9 (f7 f9 f10)))) (f7 (f32 f33 (f7 (f32 f33 ?v0) ?v0)) ?v0))))
(assert (forall ((?v0 S3)) (= (f48 (f49 f59 ?v0) (f5 f6 (f7 f9 (f7 f9 f10)))) (f48 (f49 f50 (f48 (f49 f50 ?v0) ?v0)) ?v0))))
(assert (forall ((?v0 S8) (?v1 S3)) (let ((?v_1 (f5 f6 (f7 f8 (f7 f9 f10)))) (?v_0 (f54 f55 ?v0))) (= (f53 ?v_0 (f48 (f49 f50 ?v_1) ?v1)) (f53 (f54 f55 (f53 ?v_0 ?v1)) ?v_1)))))
(assert (forall ((?v0 S6) (?v1 S3)) (let ((?v_1 (f5 f6 (f7 f8 (f7 f9 f10)))) (?v_0 (f57 f58 ?v0))) (= (f56 ?v_0 (f48 (f49 f50 ?v_1) ?v1)) (f56 (f57 f58 (f56 ?v_0 ?v1)) ?v_1)))))
(assert (forall ((?v0 S3)) (= (f48 (f49 f50 ?v0) (f5 f6 (f7 f8 (f7 f9 f10)))) (f48 (f49 f66 ?v0) ?v0))))
(check-sat)
(exit)
